sat
(:elim-unconstrained  2
 :max-memory          18.43
 :memory              18.43
 :nlsat-arith-var     2
 :nlsat-atoms         11
 :nlsat-bool-var      2
 :nlsat-clauses       7
 :nlsat-conflicts     1
 :nlsat-propagations  14
 :nlsat-stages        4
 :num-allocs          41137
 :rlimit-count        3027
 :solve-eqs-elim-vars 1
 :solve-eqs-steps     1
 :time                0.00
 :total-time          0.01)
